row=8;
Board=[|5,1,-1,-1,-1,0,-1,-1,-1,-1|4,-1,-1,6,-1,-1,-1,-1,5,7|0,-1,2,-1,1,7,5,-1,6,9|-1,-1,-1,5,-1,0,-1,7,8,2|-1,2,9,1,6,-1,8,-1,3,-1|4,-1,-1,-1,2,-1,3,-1,-1,1|7,-1,-1,6,-1,-1,5,8,-1,0|0,6,-1,-1,-1,7,1,-1,5,2|];
bottom=[29,38,40,37,21,38,30,53,44,30]